5265
1500000
998905
998905
998905
998905
998905
998905
998905
998313
998313
998126
998126
998126
998126
998126
998126
998126
998126
998126
998126
998126
998126
998126
998126
998126
998126
998126
997533
997533
997533
997533
995431
995431
995431
995431
995431
995431
995431
995431
995431
995431
995431
995431
995431
995431
995431
995431
995431
995431
995203
995203
995203
995203
995203
995203
995203
995203
993826
993489
993489
993489
993289
993289
993289
993289
992978
992978
992978
992978
992978
992978
992978
992978
992978
992978
992978
992978
991655
991655
991655
991655
991655
991655
991655
991655
991655
991655
991655
991655
991655
991655
991655
991655
991655
991655
989546
989546
986743
986743
986743
986743
986743
986743
986743
986714
986714
986714
986714
986714
986714
986714
986714
986714
986714
986714
986714
986714
986714
986714
986714
986714
986714
986714
986714
984296
984296
984296
984296
984296
984296
984296
984296
984296
984296
984296
984296
984296
984296
984296
984296
984296
984296
984296
984296
983611
983611
983611
983611
983611
983611
983611
983383
983383
983383
983383
983383
983383
983383
983383
983383
983383
983383
983383
982141
982141
982141
980567
980567
980567
980567
980567
980567
980567
980567
980373
980373
980373
980373
980373
980373
980373
980373
980373
980373
980373
980373
977194
977194
977194
977194
977194
977194
977194
977194
977194
977194
977194
977194
977194
977194
977194
977194
977194
977194
975946
975946
975946
975946
975946
975946
975946
975946
975946
975946
975946
975946
975946
975946
975946
975803
975803
975803
975803
975803
975803
975803
975803
975803
975803
975803
975803
975803
975803
975803
975803
973504
973504
973504
973504
973504
973504
973504
973504
973504
973504
973504
972389
972389
972389
972389
972389
972389
972389
972389
972389
972389
972389
972389
972389
972389
972389
969828
969828
969828
969828
969828
969828
969828
969828
969828
969828
969828
969828
969828
969828
969828
969237
969237
969237
964033
964033
964033
964033
964033
964033
964033
964033
964033
964033
964033
964033
964033
964033
964033
964033
964033
964033
964033
963693
963693
963693
963693
963693
963693
963693
963693
963693
963693
963507
963507
963507
963507
963507
963507
963507
963507
963507
963507
963507
963507
963507
963507
963507
963507
963507
962759
962759
962759
962759
962759
962759
962759
962759
962759
962759
962759
962759
962538
962538
962538
962538
962538
962538
955752
955752
955752
955752
955752
955752
955752
955752
955752
955752
955752
955752
955752
955752
955752
955752
955752
950793
950793
950793
950793
950793
950793
950793
950793
950793
950793
950793
950793
950793
950793
950793
950793
950793
950793
948034
948034
948034
948034
948034
948034
948034
946367
946367
946367
946367
946367
946367
946367
946367
946367
946114
946114
946114
946114
946114
946114
946114
946114
946114
946114
946114
946114
945237
945237
945237
945237
945237
945237
945237
945237
945237
945237
945237
942716
942716
942716
942716
942716
942716
942716
942716
942716
942716
942716
942716
942716
942716
942716
942716
942716
942716
941369
941369
941369
941369
941369
941369
941369
941369
941369
941369
941369
941369
941369
941369
941369
941369
941369
941369
940833
940833
940833
940833
940833
940833
940833
940833
940833
940833
938475
938475
938475
938475
938475
938475
938475
938475
938475
938475
938475
938475
938475
938475
938475
938475
938475
937697
937697
937697
937697
937697
937697
937667
937667
937667
937667
937667
937667
937667
937667
932544
932544
932544
932544
932544
932544
932544
932544
932544
932544
932021
932021
932021
932021
932021
925574
925574
925574
925574
925151
925151
925151
925151
925151
924805
924805
924805
924805
924805
924805
924805
924805
924805
924805
924805
924805
924437
924437
924437
921955
921955
921955
921955
921349
921349
921349
921349
921349
921349
921349
921349
921349
921349
921349
921349
921349
921349
920145
920145
920145
920145
920145
920145
920145
920145
919706
919706
919706
919706
919706
919706
919706
919706
919706
919706
919706
919706
919706
919706
919706
919706
919706
917038
917038
917038
917038
917038
917038
917038
917038
917038
917038
917038
917038
917038
917038
917038
917038
917038
917038
915139
915139
915139
915139
915139
915139
915139
915139
915139
915139
914536
914536
914536
914536
914454
914454
914454
914454
907918
907918
907918
907918
907918
907918
907918
907918
907918
907918
907918
907918
907918
907918
907918
907918
907918
907918
907918
907918
906296
906296
906296
906296
906296
906296
906296
906296
906296
906296
906296
906296
906296
906296
906296
906296
906296
906296
906296
906296
901752
901752
901752
901752
901752
901752
901752
901752
901752
901752
901752
899114
899114
899114
897594
897594
897594
897594
897594
896667
896667
896667
896667
896667
896667
896667
896280
896280
896280
896280
896280
896280
896280
896280
896280
893805
893805
893805
893805
893805
893805
893805
893805
893805
893805
893805
893805
893805
893805
893805
893288
893288
893288
892043
892043
892043
892043
892043
892043
892043
891297
891297
891297
891297
891297
889644
889644
889644
889644
889644
889644
889644
889644
889644
889644
889644
889644
889644
889644
889644
889644
889644
889644
889644
889644
887739
887739
887739
887739
887739
887739
887739
887739
887739
887739
887739
887739
887739
887739
887739
887739
887739
887739
887739
887739
884403
883940
883940
883940
883940
883940
883940
883940
883940
883940
883940
883940
883940
883940
883940
883940
883940
883940
883940
883886
883886
882277
882277
882277
879520
879520
879520
879520
879520
879520
879520
879520
879520
879520
879520
879520
879520
873965
873965
873965
873965
873965
873965
873965
873965
873965
873965
873965
873965
873965
873965
873965
873965
870625
870625
870625
870625
870625
870625
870625
870625
870625
870625
870625
870625
869994
869994
869994
869994
869994
869994
869994
869994
869994
869994
869994
869994
869994
869994
869994
869994
869994
869994
867067
867067
867067
867067
867067
867067
867067
867067
867067
867067
867067
867067
867067
867067
867067
867067
867067
867067
867067
867067
866978
866978
866978
866978
866978
866978
866978
866978
866978
866743
866743
866743
866743
866743
866743
866743
866743
866743
863395
863395
863395
863395
863395
863395
863395
863395
863395
863395
863395
863395
863395
863395
863395
863395
863395
861554
861554
861554
861554
861554
861554
861554
861554
861554
861554
861554
861300
861300
861300
861300
861300
861300
861300
861300
861300
861300
861300
861300
861300
861300
861300
861300
861300
861300
855281
855281
855281
855281
855281
855281
855281
855281
855281
855281
855281
855281
855281
855281
855281
855281
855281
855281
855281
855281
854722
854722
854722
854722
854722
854722
854722
854722
854722
854722
854722
854722
854722
854722
851714
851714
851714
851714
851714
851714
851714
850162
850162
850162
850162
850162
850162
850162
850162
850162
850162
850162
850162
850162
850162
850162
850162
850162
850162
850162
850162
848954
848954
848954
848954
848954
848954
848954
848954
848954
848954
848954
848301
848301
848301
848301
848301
848301
848301
848301
848301
848301
848301
848301
848301
848301
848301
848301
847351
847351
847351
847351
847351
847351
847351
847351
847351
847351
845686
845686
845506
845506
845165
845165
845165
845165
845165
845165
845165
845165
845165
845165
845165
845165
845165
845165
845165
845165
845034
845034
845034
845034
845034
845034
845034
843606
843606
843606
843606
843606
843606
843606
843606
843606
843606
843606
843606
842628
842628
842628
842628
842628
842628
842628
842628
842628
842628
842628
842628
842628
842628
842628
842628
842628
842628
834468
834468
834468
834468
834468
834468
834468
833405
833405
833405
833405
833405
830633
830633
830633
830633
830383
830383
830383
830383
830383
830383
830383
830383
830383
830383
830370
830370
830370
830370
830370
830370
830370
830370
830370
826963
826963
826963
826963
826963
826963
826963
826963
826963
826963
823686
823686
823686
823686
823686
823686
823686
823686
823686
823686
823686
823686
823686
823686
823686
822294
822294
822294
822294
822294
820814
820814
820814
820814
820814
820814
820814
820814
820814
820814
820814
819202
819202
819202
819202
819202
819202
819202
819202
819202
817054
817054
817054
817054
817054
817054
817054
817054
817054
817054
817054
817054
817054
817054
817054
817054
817054
814387
814387
814387
814387
814387
814387
814387
814387
814387
812584
812584
812584
812584
810673
810673
810673
810673
810673
810673
810673
810673
810673
810673
810673
810673
810673
810673
810673
809359
809359
809359
806765
806765
806765
806765
806765
806765
806765
806765
806765
806765
805906
805906
805906
805906
805906
805906
805906
805906
805484
805484
805484
805484
805484
805484
805484
805484
805484
805484
805484
805484
805484
805484
805484
805484
805484
805484
805484
805484
803982
803982
803982
803982
801968
801968
801968
801248
801248
801248
801248
789167
789167
789167
789167
789167
789167
789167
789167
789167
789167
789167
789167
789167
787481
787481
787481
787481
787481
787481
787481
787481
787481
785926
785926
785926
785926
785926
785926
785926
785926
785926
785926
785926
785926
785926
785926
785926
785926
785926
785926
785926
782330
782330
782330
782330
782330
782330
782330
782330
782330
782330
782330
782330
782330
782330
782330
782330
779576
779576
779576
777423
777423
777423
777423
777423
777423
777423
777423
777423
777423
777423
777423
777423
777423
777073
777073
777073
777073
777073
777073
776687
776687
776687
776687
776687
776687
776687
776655
776655
776655
776655
776655
776655
776655
776655
776655
776655
776655
776655
776655
776655
776655
776655
776655
769172
769172
769172
769172
769172
769172
769172
769172
769118
769118
769118
758586
758586
758586
758586
758586
758586
758586
758586
756969
756969
756969
756969
756969
756969
756969
756969
756969
756969
756969
756969
756969
756969
756969
756969
756969
756969
754827
754827
754827
754827
754827
754827
754827
754827
754827
754827
754827
754827
753762
753762
753762
753762
753228
753228
753228
753228
753228
753228
753228
753228
753228
753228
753228
753228
753228
753228
753228
752940
752940
752940
752940
752940
752940
752940
752940
752940
752940
752940
752940
752940
752940
750471
750471
750471
750471
750471
750471
750471
750471
750471
750471
750471
750471
750471
750471
750471
750393
750393
750393
750393
750393
750393
750393
750393
748320
748320
748320
748320
748320
748320
748320
748320
748320
748320
748320
748320
748320
748320
748320
747707
747707
747707
747707
747707
747707
747707
747707
747707
745580
745580
745580
741827
741827
741827
741827
741827
741827
741827
741827
741827
741827
741827
741827
741827
741827
741827
741827
741827
741827
741827
741827
739382
739382
739382
739382
739382
739382
739382
735678
730785
730785
730785
730785
730785
730785
730785
730785
730595
730595
730595
730595
730595
730595
730595
730595
730595
730595
730595
730595
730595
730595
730595
730595
725440
725440
725440
725440
725440
725440
725440
725440
725440
725440
725440
725440
725440
725440
725440
725440
725440
725440
725440
725440
721813
721813
721813
721813
721813
721813
721813
720842
720842
720842
720842
720842
720842
720842
720842
720842
720258
720258
720258
720258
720258
720258
720258
720258
720258
720258
720258
720258
712378
712378
712378
712378
712378
712378
712378
712378
712378
712378
708714
708714
708714
708714
708714
708714
708714
708714
708714
708714
708714
708714
708714
708714
708714
708714
707359
707359
707359
707359
707359
707359
707359
707359
707359
707359
707359
707359
707359
706271
706271
705921
705921
705921
705921
705921
705921
705921
705921
705921
705921
705921
705921
705921
705921
705921
705921
702983
702983
702983
702983
702983
702983
702983
702983
702983
700728
700728
700728
700728
700728
690449
690449
690449
690449
690449
690449
690449
690449
690449
690449
690449
690449
689524
689524
689524
689524
689524
689524
689524
689524
689524
689524
689524
689524
689524
689505
689505
689505
689505
689505
689505
689505
689505
689505
689505
689505
689505
689505
689505
689505
689505
689505
689505
689505
689505
689377
689377
689377
689377
689377
689377
689377
689377
689377
689377
689377
689377
689010
689010
689010
689010
689010
688692
688692
688692
688692
688692
688692
688692
688692
688692
688692
688692
688692
688692
688692
688692
688692
688692
688692
688692
687127
687127
687127
687127
673232
673232
673232
673232
673232
673232
673232
673232
673232
673232
673232
673232
673232
673232
673232
671562
671562
671562
671562
671562
671562
671562
671562
671562
671562
671562
666715
666715
666715
666715
666715
666715
666715
666715
666715
666715
666715
666715
666715
666715
666715
666604
666604
666604
666604
666604
666604
666604
666604
666604
666604
666604
666604
666604
666604
666604
666604
666604
666604
666604
666604
665487
665487
665487
665487
665487
665487
665487
665487
665487
665487
665487
665487
665487
665487
665487
665487
665487
665487
665487
662777
662777
662777
662777
662777
662777
662777
662777
662777
662777
662777
662777
662777
662777
662777
660951
660951
660951
660951
660951
660951
660951
660922
657414
657414
657414
654467
654467
654467
654467
654467
654467
654467
654467
654467
654467
654467
654467
654467
654467
654467
654467
654467
653792
653792
653792
653792
653792
653792
653792
653792
653792
653792
653792
653792
653792
649447
649447
649447
649447
649447
649447
649447
649447
649447
649447
649447
649447
649447
649447
649447
649447
649447
646267
646267
646267
646267
646267
646267
646267
645747
645747
645747
645747
645747
645747
645747
645747
645747
645747
645747
645747
645747
645747
645514
645514
645514
645514
645514
645514
645514
645514
645514
645514
645514
645514
644041
644041
644041
644041
644041
644041
644041
644041
644041
644041
644041
644041
644041
644041
644041
644041
644041
644041
644041
643936
643936
643584
643584
643584
643584
643584
639634
639634
639634
639634
639634
639634
639634
639634
639634
639634
639634
639634
639634
639634
639634
639634
639634
639634
638112
638112
638112
638112
638112
638112
638112
635714
635714
635714
635714
635714
635714
635714
635714
635714
635714
635714
635714
635714
635714
635714
631044
631044
631044
631044
631044
631044
631044
631044
631044
631044
631044
631044
631044
631044
629910
629910
629910
629910
629910
629605
629605
629605
629605
629605
627886
627886
627886
627886
627886
627886
627886
627886
627886
627886
627886
627886
627886
627886
627886
627886
627886
627839
627839
627839
627839
627839
627839
627839
627839
627839
627839
627839
627839
627839
627839
627839
627839
625010
625010
625010
625010
625010
625010
625010
625010
625010
625010
625010
625010
625010
625010
625010
625010
625010
625010
625010
625010
624169
624169
624169
624169
624169
624169
624169
620968
620968
620968
620968
620968
620968
620968
620968
620968
620968
620968
618880
617936
617936
617936
617936
617936
617936
617936
617936
617936
617936
617936
617936
617936
617936
614075
614075
614075
614075
614075
614075
614075
613978
613978
613978
613978
613978
613978
613978
613978
613978
613978
613978
613978
613978
613978
613978
613978
613978
613978
613978
613978
611139
611139
611139
611139
611139
611139
611139
611139
608988
608988
608988
608988
608988
608988
608988
608988
608988
608988
608988
608988
608988
608988
608988
608988
607152
607152
607152
607152
607152
607152
604615
604615
604615
604615
604615
604615
604615
604615
604615
604615
604615
601647
601647
601647
601647
601647
601647
601647
601647
601647
601647
601647
601647
601647
601647
601083
601083
601083
601083
601083
597669
597669
597669
597669
597669
597669
597669
597669
597669
597669
588520
588520
588520
588520
588520
588520
588520
588520
588520
588520
588520
588520
588145
588145
588145
588145
588145
588145
588145
588145
588145
588145
588145
588145
588145
588145
588145
588145
586766
586766
586766
586766
586766
586766
586766
586766
586766
586766
586766
586766
586766
586766
586766
586766
586766
586766
586766
586766
585785
585785
585785
585785
585785
585785
585785
585785
585785
585785
585785
585785
585785
585785
584044
584044
584044
584044
584044
584044
584044
584044
584044
584044
584044
584044
584044
584044
584044
584044
582857
582857
582857
582857
582857
582857
582800
582800
582800
582800
582800
582800
582800
582800
582800
582800
582800
579339
579339
578578
578578
578578
578578
578578
578578
578578
578578
578578
578578
578578
578578
578401
578401
578401
578401
578401
578401
578401
578401
578401
578401
578401
578401
578401
578401
578401
578401
578401
577069
577069
577069
577069
577069
577069
577069
577069
577069
577069
577069
577069
577069
577069
577069
577069
577069
577069
577069
577069
575518
575139
575139
575139
575139
575139
575139
575139
575139
575139
575139
575139
575139
575139
575139
575139
575139
575139
575139
575139
575139
574973
574973
574973
574973
574973
574973
574973
574973
574973
574973
574973
574973
574973
574973
574973
574973
574973
573764
573764
573764
573764
573764
573764
573764
573764
573764
573764
573764
573764
573764
573764
573764
573764
573764
573764
569422
569422
569422
569422
569422
569422
569422
569422
569422
569422
569422
569189
569189
569189
569189
569189
569189
569189
569189
569189
569189
569189
569189
565846
565846
565393
565393
565393
565393
564179
564179
564179
564179
564179
564179
564179
561483
561483
561483
561483
561483
561483
561483
561483
561483
561483
561483
561483
561483
561483
561483
561483
560945
560945
560945
560945
560945
560945
560945
560945
560945
560945
560945
560945
560945
560945
560945
560360
560360
560360
560360
560360
560360
560360
560360
560360
560360
560360
560360
560360
560360
560360
560360
560360
558585
558585
557380
557380
557380
557380
557380
557380
557380
557380
557380
557380
557380
557380
557380
557380
557380
557380
557380
557380
557380
557380
556323
556323
556323
556323
555306
555306
555306
555306
553436
553436
553436
553436
553302
553302
553302
553302
553302
553302
553302
553302
551896
551896
551896
551896
551896
551896
551896
551896
551896
551554
551554
551554
551554
551554
551554
551554
551554
551554
551554
551554
551554
551554
551554
551554
551554
551554
551362
551362
551362
551362
551362
551362
551362
551362
551362
551362
551362
551362
551362
551362
551362
551362
551362
551362
551362
551362
546811
546811
546811
546811
546811
546811
546811
546811
546811
546811
546811
546811
546811
546811
546646
545809
545809
545809
545809
545809
545809
545809
542798
542798
542798
542798
542798
542798
542798
542798
542798
542798
542798
542798
542798
542798
542798
542798
542798
542798
542798
541775
541775
541775
541775
541775
541775
540209
540209
540209
540209
540209
538644
538644
538644
538644
538644
538644
538644
538644
538644
538644
538644
538644
538644
538644
538644
538644
538644
538644
538644
538644
537546
537546
537546
537546
537546
537546
537546
536240
536240
536240
536240
536240
536240
536028
536028
536028
536028
536028
536028
536028
536028
536028
536028
535759
535759
535759
535759
535759
535759
535759
535759
535759
535759
535759
535759
535759
535759
535759
535759
535759
535759
535759
535759
531417
531417
531417
531417
531417
531417
531417
531417
531417
531417
531417
531417
531417
531417
531417
531417
531417
531417
531417
531417
523507
523507
523507
523507
523507
523507
523507
523507
523507
523507
523507
523507
523507
523507
523507
523507
523507
523507
523507
523507
521231
515527
515527
515527
515527
515527
515527
515527
515527
515527
515527
515527
515527
515301
515301
515301
515301
515301
515301
515301
515301
515301
515301
515301
515301
515117
515117
515117
515117
515117
515117
512831
512831
512831
512831
512831
512831
512831
511774
511774
511774
511774
511774
511774
511774
511774
511774
511774
511774
511774
511774
511774
511774
511774
511774
511774
511774
506735
506735
506735
506735
506735
506735
506735
506735
505773
505773
505773
505773
505773
505773
505773
505773
505773
505773
505773
505773
505773
505773
505773
505773
505773
505773
505773
498466
498466
498466
498466
498466
498466
498466
498466
498466
498466
498466
498466
498157
498157
498157
498157
498157
498157
498157
498157
498157
498157
498157
498157
498157
498157
498157
498157
498157
497295
497224
497224
497224
497224
497224
497224
496739
496739
496739
496739
496739
496739
496739
496739
496739
496739
496739
496739
496739
496739
496739
493245
493245
493245
493245
493245
493245
493245
493245
493245
493245
493245
493245
493245
493245
493245
493245
492274
492274
492274
492274
492274
492274
492274
492274
492274
492274
492274
492274
492274
492274
492274
492274
491315
491315
491315
491315
491315
491315
491315
491315
491315
491315
491315
491315
491315
491315
490873
490873
490873
490873
490873
490873
490873
490873
482468
482468
482468
482468
482468
482468
482468
482468
482468
482468
482468
482468
482468
482468
482468
482468
480370
480370
480370
480370
480370
480370
479136
479136
479136
479136
479136
479136
479136
479136
479136
479136
479136
479136
479136
479136
479136
479136
479136
479136
479136
479136
477085
477085
477085
477085
477085
477085
477085
477085
477085
477085
477085
477085
477085
477085
477085
477085
477085
477085
477085
477085
476672
476672
476672
476672
476672
476672
476672
476672
476672
476672
476672
476672
476672
475506
475506
475506
475506
474816
474816
474816
474816
474816
472335
472335
472335
472335
472335
472335
472335
472335
472335
472335
472335
472335
472335
472335
468902
468902
468902
468902
468902
468902
468902
468902
468902
468902
468902
468902
467719
467719
467719
467719
467719
467719
467719
467719
467719
467719
467719
467719
467719
467719
467719
467719
467719
467719
465333
465333
465333
465333
465333
465333
465333
465333
465333
465333
465333
465333
465333
465333
465333
465333
465333
460828
460828
460828
460828
460828
460828
460828
460828
460828
460828
460828
460828
460828
460828
460828
460828
460828
460828
460828
459021
452899
452899
452899
452899
452569
452569
452569
452569
452569
452569
452569
452569
452569
452569
452569
452569
452569
452509
452509
452509
451493
451493
451493
451493
451493
451493
451493
451493
451493
451493
451493
451493
451493
451493
451493
451493
451493
451493
450758
450758
450758
450758
450758
450758
450758
450758
450758
450758
450758
450758
450758
450758
450758
450758
450758
450630
450630
450630
450630
450630
450630
450630
450630
450630
450630
450630
450630
448596
448596
448596
447814
447814
447814
447814
447814
447814
447814
447814
447814
447814
447814
447814
447814
447814
447814
447814
447814
446909
446909
446909
433980
433980
433980
433980
433980
433980
433980
433980
433980
433980
433980
433980
433980
433980
433980
433980
433980
433980
433337
433337
433337
433337
433337
433337
433337
433192
433192
433192
433192
433096
431837
431837
431837
431837
431837
429155
429155
429155
429155
429155
429155
429155
429155
429155
429155
429155
429155
429155
429155
428458
426866
425869
425869
425869
425869
425869
425869
422495
422495
422495
422495
422495
422495
422047
422047
422047
422047
422047
422047
416129
416129
413551
413551
413551
413551
413551
413551
413551
413551
413551
413551
413551
413551
413551
413551
399654
399654
399654
399654
399654
399654
399654
399654
399654
399654
399654
399654
399654
399654
399654
399654
399654
399654
399654
399193
399193
399193
399193
399193
399193
399193
399193
399193
399193
399193
399193
399193
399193
399193
399193
399193
398398
398398
398398
398398
398398
398398
398398
398398
398398
398398
398398
398398
398398
398398
398398
398398
398398
398398
395554
395554
395554
395554
395554
395554
395554
395554
395554
395554
394293
394293
392605
392605
392605
392605
392605
392605
392605
392605
392605
392161
392161
392161
392161
392161
392161
392161
392161
391843
391843
387626
387626
387626
387626
387626
387626
387626
387626
387626
387626
387626
387626
386729
385683
385683
385683
385683
385683
385683
385031
385031
385031
385031
385031
385031
385031
385031
385031
385031
384726
384726
384726
384726
383470
383470
383470
383470
383470
383470
383470
383470
383470
383470
383470
383470
383470
383470
383470
383470
382952
382952
382952
382952
380312
380312
380312
380312
380312
380312
380312
380312
380312
380312
379154
379154
379154
379154
377181
377181
377181
377181
377181
377181
377181
377181
376270
376270
376270
376270
376270
376270
376270
376270
376270
376270
376270
376270
376269
376269
376269
376269
376269
376269
376269
376269
376269
375009
375009
375009
375009
375009
375009
375009
375009
373890
373890
373890
373890
373890
373890
373890
373890
373890
373890
373890
373890
373890
373890
373890
373890
373890
373890
373890
373890
373647
373647
371880
371880
371880
371880
371880
371880
371880
371880
371880
371880
371880
371880
371880
371880
371880
370821
370821
370821
370821
370821
370821
370821
370821
370821
370821
370821
370821
370821
370821
370821
370821
370433
370433
370433
370433
370433
370433
370433
370433
370433
370433
370433
370433
370433
370433
370433
370433
370433
365698
365698
365698
365698
365698
365698
365698
365698
365698
365698
365698
365698
365698
365698
365698
365698
365698
365698
365698
363827
363827
363827
363827
363827
363827
362326
362326
362326
362326
362326
362326
362326
362326
362326
362326
361481
353913
353913
353913
353913
353913
353913
353913
353913
353602
353602
353602
353602
353602
353602
353602
353602
353602
353602
353602
353602
353602
353602
353602
353602
353602
353602
353602
353602
352573
352573
352573
352573
352573
352573
352573
352573
352573
352573
352573
352573
352573
352573
349475
349475
349475
349475
349475
349475
349475
349475
349475
349475
349475
349475
349475
347231
347231
347231
347231
347231
347231
347231
347231
347231
347231
347231
347231
346065
346065
346065
346065
346065
346065
346065
346065
346065
346065
346065
346065
346065
345258
345258
345258
345258
345258
345258
345258
345258
345258
345258
345258
345258
345258
345258
345258
345258
345258
341302
332154
332154
332154
332154
332154
332154
332154
332154
332154
332154
332154
332154
332154
332154
332154
332154
330051
330051
330051
330051
330051
330051
330051
330051
330051
326168
326168
326168
326168
326168
326168
326168
326168
326168
326168
326168
326168
326168
326168
326168
326168
325659
325659
325659
325659
324813
324813
324813
324813
324813
324813
324813
324813
324813
324813
324813
324813
324813
324813
324813
324813
321892
321892
321892
321892
321892
321892
321892
321892
321892
321892
321892
321892
321034
321034
321034
321034
321034
321034
321034
321034
321034
321034
321034
321034
321034
321034
321034
321034
321034
321034
321034
321034
319512
319512
319512
319512
319512
319512
316962
316962
316962
316962
316962
316962
316962
316962
316962
316962
316962
316962
316962
316962
316962
316962
316962
316962
316962
315160
315160
315160
315160
315160
315160
315160
315160
315160
315160
315160
315160
315160
315160
315160
311748
311748
311748
311748
311748
311748
311748
311748
311748
307545
307545
307545
307545
307545
307545
307545
307545
307545
307545
305280
305280
305280
305280
305280
304456
304456
304456
304456
304176
304176
304176
304176
304176
304176
304176
304176
304176
304176
304176
304176
304176
304176
302929
302929
302929
302929
302929
302929
302929
302929
302929
302929
302929
302929
302929
302929
302929
302929
302929
302929
302929
302929
302338
302338
302338
302338
302338
302338
302338
302338
301732
301732
301732
301732
298277
298277
298277
298277
298277
298277
298277
298277
298277
294377
294377
294377
294377
294377
294377
294377
294377
294377
294377
294377
294377
294377
294377
294377
294377
294377
294377
294377
293354
293354
293354
293354
293354
293354
293354
293354
293354
293354
293354
293354
289936
289936
289936
289936
289936
289936
289936
285351
284546
284546
284546
284546
284546
283818
283818
283818
283818
283818
283818
283818
283818
283818
281776
281776
281776
281776
281776
281378
281378
280445
280445
280445
280445
279895
279895
279895
279895
279895
279895
279895
279895
279895
279895
279895
279895
279895
279895
279895
279895
279895
279895
279895
276762
276762
276762
276762
276762
275670
275670
275670
275670
275670
275670
275670
275670
275670
275670
275670
275670
275670
275670
275670
275670
275670
275670
275670
273294
273294
273294
273294
273294
273294
273294
273294
273294
273294
273294
273294
273294
273294
273294
273294
271883
271883
271883
271883
271883
271883
271883
271883
271883
271883
271883
269744
269744
267265
267265
267265
267265
267265
267265
267265
267265
267265
266659
266346
266346
266346
265687
265687
265687
265687
265687
265687
265687
265687
265687
265687
265491
265491
265491
265491
265491
265491
265491
262026
262026
262026
257540
257540
257540
257540
257540
257540
249767
249767
249767
248158
248158
248158
248158
248158
248158
248158
248158
248158
248149
248149
248149
248149
248149
248149
248149
248149
248149
248149
248149
248149
248149
248149
248149
248149
248149
248149
248149
248149
245972
245972
245972
245972
245972
241683
241683
241683
241683
241683
241683
241683
239549
239549
239549
239549
239549
239549
239549
239549
239549
239549
239549
239029
239029
239029
239029
239029
239029
239029
239029
239029
239029
239029
239029
239029
239029
239029
239029
239029
239029
234424
234424
234424
234424
234424
234424
234424
234424
234424
234424
234424
234424
234424
234424
233520
233520
233520
233520
233520
233520
233520
233520
233520
233520
233432
233432
233432
233432
233432
233432
233432
233432
233432
233432
233432
233432
233432
232552
232552
232552
232552
232552
232552
232552
232552
232552
232552
232552
232552
232552
229240
229240
229240
229240
229240
229240
229240
229240
229240
229240
229240
229240
226861
226861
226861
226861
226861
226861
226861
226861
226861
226861
226861
226861
226861
226861
226861
226861
226861
226861
226861
226861
224190
224190
224190
224190
224190
224190
224190
224190
224190
224190
224190
224190
224190
221456
221456
221456
221456
220833
220833
220833
220833
220833
220833
220833
220833
220833
220833
220833
220833
219333
219333
219333
219333
216163
216163
211278
208119
208119
208119
208119
208119
207997
207997
207997
207997
207997
207997
207997
207997
207997
207997
207997
207997
205697
205697
205697
205697
205697
205697
205697
205697
205697
205697
205697
205697
205697
202407
202407
202207
202207
202207
201658
201658
201658
201658
201658
201658
201658
201658
201658
201658
198689
198689
198689
198689
198689
198689
198689
198689
198689
198689
198689
198689
198689
198689
198689
198689
198689
198689
197416
197416
197416
197416
197416
197416
197416
197416
197416
193136
192106
192106
192106
192106
192106
192106
192106
192106
192106
192106
192106
192106
192106
190501
190501
190501
190501
190501
190501
188922
188922
188922
188922
188922
188922
188922
188922
188922
188922
188922
188922
188922
188922
188922
188922
188922
188922
184249
181364
181364
181364
180803
180803
180803
180803
180803
180803
180803
180803
180803
180803
180376
180376
180376
180376
180376
180376
180376
180376
180376
180376
180376
180376
180376
180376
180376
180376
180376
180376
180376
179584
179584
179584
179584
179584
179584
179584
179584
179584
179584
179584
179584
179584
179584
179584
179584
179584
179584
179584
175446
175446
175446
175446
175446
175446
175446
175446
175446
175446
175446
175446
175446
175446
175446
175446
175446
175446
173655
173655
173655
173655
170406
170406
170406
170406
170406
170406
170406
170406
170406
170406
170406
170406
170406
170406
170406
170406
170406
170406
170406
169696
169696
169015
169015
169015
169015
169015
169015
169015
167105
167105
167105
167105
167105
167105
167105
167105
167105
167105
167105
163391
163391
163391
163391
163391
163391
163391
163391
163391
163391
163391
163391
161568
161568
161568
161568
161328
161328
161328
161328
161328
161328
161328
161328
161328
161328
161328
156342
156342
156342
156342
156342
156342
156342
156342
156342
156342
156342
156342
156342
156342
156342
156342
156342
156342
156342
155239
155239
155239
155239
155239
155239
155239
155239
155239
155239
155239
155239
153056
153056
153056
153056
153056
153056
153056
153056
153056
153056
153056
153056
153056
153056
153056
153056
147639
147639
147639
147639
147639
147639
147639
141708
141708
141708
141708
141708
141708
141708
139328
139328
139328
139328
139328
139328
139328
139328
133274
133274
133274
133274
133274
133274
133274
133274
133274
133274
133274
132527
132527
132527
132527
132527
132527
132527
132527
132527
132527
132527
130140
130140
130140
130140
130140
130140
130140
130140
130140
130140
130140
130140
130140
130140
130140
130140
130140
130140
130140
130140
129938
129938
129938
129938
129938
129938
129938
129938
129938
129938
129938
129938
129938
129938
128478
128247
128247
128247
128247
128247
128247
128247
128247
128247
128247
127752
127752
127752
127752
127752
127752
127752
127752
127752
127752
127752
127752
127752
127752
127752
127752
125922
125922
125922
125922
125922
125922
125922
125922
125922
125922
125922
125922
125922
125922
125922
125922
125922
125922
125726
125726
125726
125726
125726
125726
125726
125726
125726
123657
123657
122457
122457
122457
122457
122457
122457
122457
122457
122457
122457
122457
122457
121090
121090
121090
121090
121090
121090
121090
121090
117778
117778
117778
117778
117633
117633
117633
117633
116694
116694
116694
116694
116694
116694
116694
116694
116694
116694
116694
114053
114053
114053
114053
114053
114053
114053
114053
114053
114053
114053
114053
114053
114053
114053
114053
114053
114053
114053
114053
112669
112551
112551
112551
112551
112551
112551
112551
112551
112551
112551
112551
109053
109053
109053
109053
109053
109053
109053
109053
109053
109053
109053
109053
109053
109053
108507
108507
108507
108507
108507
108507
108507
108507
107372
107372
107063
107063
107063
107063
107063
107063
107063
107063
107063
107063
107063
107063
107063
107063
105064
105064
105064
105064
105064
105064
105064
105064
105064
105064
105064
105064
105064
104076
104076
104076
104076
104076
104076
104076
104076
104076
104076
104076
104076
104076
104076
104076
104076
103842
103842
103842
103842
103842
103842
103228
103228
103228
103228
103228
103228
99761
99761
99761
99761
99761
99761
99761
99761
99761
99761
99761
99761
99761
99761
99761
99761
99761
99761
99761
97819
97819
97819
97819
97819
97819
97819
96858
96858
96858
96858
96858
96858
96858
96858
96858
96858
94395
94395
94395
94395
94395
94395
94395
94395
94395
94395
94395
94395
94395
94395
94395
94395
94395
91837
91837
91837
91837
91837
89161
89161
89161
89161
89161
89161
89161
85627
85627
85627
85627
85627
85627
85627
85627
85627
85627
85627
85627
85627
85627
85627
85627
85627
85627
85627
83011
83011
83011
83011
83011
83011
83011
83011
83011
83011
83011
83011
83011
83011
83011
83011
78907
78907
78907
78907
78907
78907
78907
78907
76599
74190
74190
74190
74190
74190
74190
74190
74190
72853
72853
72853
72853
72853
72853
72853
72853
72853
72853
72853
72853
72853
70889
70889
70889
70889
70889
70889
70889
70889
70889
70889
70889
70889
70889
70889
70889
70889
70889
70889
70889
69965
69965
69965
69965
69965
69965
69965
69965
69965
69965
69965
69965
65938
65938
65938
65938
63417
63417
63417
63417
63417
63417
63417
63417
63417
63417
63417
63417
63417
63417
63417
62888
62888
62888
62888
62888
62888
62888
62711
62711
62711
62673
61736
61736
61736
61736
61736
61736
61736
61736
61736
61736
61736
61464
61464
61464
61464
61464
61464
61464
61464
61464
61464
61464
61464
61464
61464
60501
60501
60501
60501
60501
60501
60501
60501
60379
60379
60379
60379
60379
60379
60379
60379
60379
60379
60379
60379
60379
60379
60379
60379
58181
58181
58181
58181
58181
58181
58181
58181
58181
58181
58181
58181
55770
55770
55770
55770
55770
55770
55770
55770
55770
55770
55770
55770
55770
55770
55770
55770
55770
55770
55770
54832
54832
54832
54832
54832
54832
54832
54832
54832
54832
54832
54832
54832
54832
54832
54832
54832
52039
52039
52039
52039
52039
52039
52039
46142
46142
46142
46142
46142
46142
46142
46142
46142
46142
44770
44770
44255
44255
42594
42594
42594
42594
42594
42594
42594
42594
42594
42594
34618
34618
34618
34618
34618
34618
34618
34618
34618
34618
34618
34618
34618
34618
34618
34618
34618
34618
34618
34618
31603
31603
31603
31603
31603
31603
31603
31603
31603
31603
31136
31136
31136
31136
31136
31136
30962
30962
30962
30962
30962
30962
30962
30962
30962
30962
30962
30962
30962
24062
24062
24062
19415
19415
19415
19415
19415
19415
19415
19415
19415
19415
19415
19415
19415
19415
19415
19415
19415
19221
19221
19221
19221
17847
17847
17847
17847
16624
16624
16624
16624
16624
16624
16624
16624
16624
16624
16624
16624
15764
15764
15764
15764
15764
15764
15764
15764
15764
15764
15764
15764
15764
15764
15764
12784
12784
12019
12019
12019
12019
12019
12019
12019
12019
12019
12019
12019
12019
12019
12019
12019
